
  32    4
  10   10   10   10

   0   0   0   0   0   3 2 8 9 
   6  10  10  10  10   1 3 
   5  10  10  10  10   1 4 
   8  10  10  10  10   1 5 
   7  10  10  10  10   1 6 
   6  10  10  10  10   2 16 7 
  10  10  10  10  10   2 15 10 
   4  10  10  10  10   1 10 
   5  10  10  10  10   3 18 15 12 
   2  10  10  10  10   1 11 
   1  10  10  10  10   2 18 12 
   9  10  10  10  10   1 13 
   4  10  10  10  10   1 14 
   5  10  10  10  10   2 26 17 
   1  10  10  10  10   3 26 24 19 
   3  10  10  10  10   3 26 24 19 
   1  10  10  10  10   2 24 19 
   8  10  10  10  10   2 24 19 
   4  10  10  10  10   1 20 
   1  10  10  10  10   1 21 
   4  10  10  10  10   1 22 
   2  10  10  10  10   2 31 23 
   3  10  10  10  10   2 30 25 
   7  10  10  10  10   2 30 25 
   6  10  10  10  10   1 27 
   9  10  10  10  10   1 27 
   6  10  10  10  10   1 28 
   6  10  10  10  10   1 29 
   9  10  10  10  10   1 32
  10  10  10  10  10   1 32
   6  10  10  10  10   1 32
   0   0   0   0   0   0 
